(declare-rel inv2 (Int Int Int Int))
(declare-rel fail ())
(declare-var A Int)
(declare-var B Int)
(declare-var C Int)
(declare-var D Int)
(declare-var E Int)
(declare-var F Int)
(rule (=> (and (= F 0) (= E 0) (= A B) (= 1351235 B)) (inv2 F E B A)))
(rule (let ((a!1 (= D (ite (= (mod F 2) 0) (+ E 1) E))))
  (=> (and (inv2 F E B A) (= C (+ F 1)) a!1) (inv2 C D B A))))
(rule (=> (and (inv2 F E B A) (= F (* 2 A)) (not (= E A))) fail))
(query fail)

